c *********************************
c * Circuit generated by BenCGen
c *
c * RippleCarryAdder_18_18_18_InOutT
c *
c * Ports with 1 gate(s): 1
c * Ports with 2 gate(s): 91
c * Total gates: 92
c *********************************
p cnf 128 311
1 57 0
-1 -57 0
1 -56 0
57 -56 0
-1 -57 56 0
1 19 -59 0
-1 19 59 0
1 -19 59 0
-1 -19 -59 0
59 56 -37 0
-59 56 37 0
59 -56 37 0
-59 -56 -37 0
56 -60 0
59 -60 0
-56 -59 60 0
19 -61 0
1 -61 0
-19 -1 61 0
-60 58 0
-61 58 0
60 61 -58 0
2 20 -63 0
-2 20 63 0
2 -20 63 0
-2 -20 -63 0
63 58 -38 0
-63 58 38 0
63 -58 38 0
-63 -58 -38 0
58 -64 0
63 -64 0
-58 -63 64 0
20 -65 0
2 -65 0
-20 -2 65 0
-64 62 0
-65 62 0
64 65 -62 0
3 21 -67 0
-3 21 67 0
3 -21 67 0
-3 -21 -67 0
67 62 -39 0
-67 62 39 0
67 -62 39 0
-67 -62 -39 0
62 -68 0
67 -68 0
-62 -67 68 0
21 -69 0
3 -69 0
-21 -3 69 0
-68 66 0
-69 66 0
68 69 -66 0
4 22 -71 0
-4 22 71 0
4 -22 71 0
-4 -22 -71 0
71 66 -40 0
-71 66 40 0
71 -66 40 0
-71 -66 -40 0
66 -72 0
71 -72 0
-66 -71 72 0
22 -73 0
4 -73 0
-22 -4 73 0
-72 70 0
-73 70 0
72 73 -70 0
5 23 -75 0
-5 23 75 0
5 -23 75 0
-5 -23 -75 0
75 70 -41 0
-75 70 41 0
75 -70 41 0
-75 -70 -41 0
70 -76 0
75 -76 0
-70 -75 76 0
23 -77 0
5 -77 0
-23 -5 77 0
-76 74 0
-77 74 0
76 77 -74 0
6 24 -79 0
-6 24 79 0
6 -24 79 0
-6 -24 -79 0
79 74 -42 0
-79 74 42 0
79 -74 42 0
-79 -74 -42 0
74 -80 0
79 -80 0
-74 -79 80 0
24 -81 0
6 -81 0
-24 -6 81 0
-80 78 0
-81 78 0
80 81 -78 0
7 25 -83 0
-7 25 83 0
7 -25 83 0
-7 -25 -83 0
83 78 -43 0
-83 78 43 0
83 -78 43 0
-83 -78 -43 0
78 -84 0
83 -84 0
-78 -83 84 0
25 -85 0
7 -85 0
-25 -7 85 0
-84 82 0
-85 82 0
84 85 -82 0
8 26 -87 0
-8 26 87 0
8 -26 87 0
-8 -26 -87 0
87 82 -44 0
-87 82 44 0
87 -82 44 0
-87 -82 -44 0
82 -88 0
87 -88 0
-82 -87 88 0
26 -89 0
8 -89 0
-26 -8 89 0
-88 86 0
-89 86 0
88 89 -86 0
9 27 -91 0
-9 27 91 0
9 -27 91 0
-9 -27 -91 0
91 86 -45 0
-91 86 45 0
91 -86 45 0
-91 -86 -45 0
86 -92 0
91 -92 0
-86 -91 92 0
27 -93 0
9 -93 0
-27 -9 93 0
-92 90 0
-93 90 0
92 93 -90 0
10 28 -95 0
-10 28 95 0
10 -28 95 0
-10 -28 -95 0
95 90 -46 0
-95 90 46 0
95 -90 46 0
-95 -90 -46 0
90 -96 0
95 -96 0
-90 -95 96 0
28 -97 0
10 -97 0
-28 -10 97 0
-96 94 0
-97 94 0
96 97 -94 0
11 29 -99 0
-11 29 99 0
11 -29 99 0
-11 -29 -99 0
99 94 -47 0
-99 94 47 0
99 -94 47 0
-99 -94 -47 0
94 -100 0
99 -100 0
-94 -99 100 0
29 -101 0
11 -101 0
-29 -11 101 0
-100 98 0
-101 98 0
100 101 -98 0
12 30 -103 0
-12 30 103 0
12 -30 103 0
-12 -30 -103 0
103 98 -48 0
-103 98 48 0
103 -98 48 0
-103 -98 -48 0
98 -104 0
103 -104 0
-98 -103 104 0
30 -105 0
12 -105 0
-30 -12 105 0
-104 102 0
-105 102 0
104 105 -102 0
13 31 -107 0
-13 31 107 0
13 -31 107 0
-13 -31 -107 0
107 102 -49 0
-107 102 49 0
107 -102 49 0
-107 -102 -49 0
102 -108 0
107 -108 0
-102 -107 108 0
31 -109 0
13 -109 0
-31 -13 109 0
-108 106 0
-109 106 0
108 109 -106 0
14 32 -111 0
-14 32 111 0
14 -32 111 0
-14 -32 -111 0
111 106 -50 0
-111 106 50 0
111 -106 50 0
-111 -106 -50 0
106 -112 0
111 -112 0
-106 -111 112 0
32 -113 0
14 -113 0
-32 -14 113 0
-112 110 0
-113 110 0
112 113 -110 0
15 33 -115 0
-15 33 115 0
15 -33 115 0
-15 -33 -115 0
115 110 -51 0
-115 110 51 0
115 -110 51 0
-115 -110 -51 0
110 -116 0
115 -116 0
-110 -115 116 0
33 -117 0
15 -117 0
-33 -15 117 0
-116 114 0
-117 114 0
116 117 -114 0
16 34 -119 0
-16 34 119 0
16 -34 119 0
-16 -34 -119 0
119 114 -52 0
-119 114 52 0
119 -114 52 0
-119 -114 -52 0
114 -120 0
119 -120 0
-114 -119 120 0
34 -121 0
16 -121 0
-34 -16 121 0
-120 118 0
-121 118 0
120 121 -118 0
17 35 -123 0
-17 35 123 0
17 -35 123 0
-17 -35 -123 0
123 118 -53 0
-123 118 53 0
123 -118 53 0
-123 -118 -53 0
118 -124 0
123 -124 0
-118 -123 124 0
35 -125 0
17 -125 0
-35 -17 125 0
-124 122 0
-125 122 0
124 125 -122 0
18 36 -126 0
-18 36 126 0
18 -36 126 0
-18 -36 -126 0
126 122 -54 0
-126 122 54 0
126 -122 54 0
-126 -122 -54 0
122 -127 0
126 -127 0
-122 -126 127 0
36 -128 0
18 -128 0
-36 -18 128 0
-127 55 0
-128 55 0
127 128 -55 0
